SPARKNaCl/why3-z3/sparknacl-mac.adb_223_71_range_check2_1.smt2
;; produced by z3_gnatprove.drv ;;
(set-info :smt-lib-version 2.5)
(set-info :source |VC generated by SPARK 2014|)
(set-info :category industrial)
(set-info :status unknown)
;;; generated by SMT-LIB2 driver
;;; SMT-LIB2 driver: bit-vectors, common part
;;; SMT-LIB2: integer arithmetic
(declare-datatypes ()
  ((int__ref (int__refqtmk (int__content Int)))))

(declare-datatypes ()
  ((bool__ref (bool__refqtmk (bool__content Bool)))))

;; "length"
(define-fun length ((x Int) (y Int)) Int
  (ite (<= x y) (+ (- y x) 1) 0))

(declare-sort tinteger_32B 0)

;; "tinteger_32B'int"
(declare-fun tinteger_32Bqtint (tinteger_32B) Int)

;; "tinteger_32B'axiom"
(assert
  (forall ((i tinteger_32B))
    (and
      (<= (- 2147483648) (tinteger_32Bqtint i))
      (<= (tinteger_32Bqtint i) 2147483647))))

;; "in_range"
(define-fun in_range ((x Int)) Bool
  (and (<= (- 2147483648) x) (<= x 2147483647)))

;; "to_rep"
(define-fun to_rep ((x tinteger_32B)) Int
  (tinteger_32Bqtint x))

;; "of_rep"
(declare-fun of_rep (Int) tinteger_32B)

;; "inversion_axiom"
(assert
  (forall ((x tinteger_32B))
    (! (= (of_rep (to_rep x)) x) :pattern ((to_rep x)) )))

;; "range_axiom"
(assert
  (forall ((x tinteger_32B))
    (! (in_range (to_rep x)) :pattern ((to_rep x)) )))

;; "coerce_axiom"
(assert
  (forall ((x Int))
    (! (=> (in_range x) (= (to_rep (of_rep x)) x)) :pattern ((to_rep
                                                               (of_rep x))) )))

;; "in_range"
(define-fun in_range1 ((x Int)) Bool
  (and (<= 0 x) (<= x 2147483647)))

(declare-sort byte 0)

;; "to_rep"
(declare-fun to_rep1 (byte) (_ BitVec 8))

;; "of_rep"
(declare-fun of_rep1 ((_ BitVec 8)) byte)

;; "inversion_axiom"
(assert
  (forall ((x byte)) (! (= (of_rep1 (to_rep1 x)) x) :pattern ((to_rep1 x)) )))

;; "range_axiom"
(assert true)

;; "coerce_axiom"
(assert
  (forall ((x (_ BitVec 8)))
    (! (= (to_rep1 (of_rep1 x)) x) :pattern ((to_rep1 (of_rep1 x))) )))

(declare-sort map1 0)

(declare-datatypes ()
  ((map__ref (map__refqtmk (map__content map1)))))

;; "has_bounds"
(declare-fun has_bounds (map1
  Int
  Int) Bool)

;; "get"
(declare-fun get (map1
  Int) byte)

;; "set"
(declare-fun set (map1
  Int
  byte) map1)

;; "set_eq"
(assert
  (forall ((a map1) (i Int) (v byte))
    (! (= (get (set a i v) i) v) :pattern ((set a i v)) )))

;; "set_neq"
(assert
  (forall ((a map1) (i Int) (v byte))
    (! (forall ((j Int))
         (! (=> (not (= i j)) (= (get (set a i v) j) (get a j))) :pattern (
         (get
           a
           j)) :pattern ((get (set a i v) j)) )) :pattern ((set a i v)) )))

;; "set_has_bounds"
(assert
  (forall ((a map1) (i Int) (f Int) (l Int) (v byte))
    (! (=>
         (and (<= f i) (<= i l))
         (=> (has_bounds a f l) (has_bounds (set a i v) f l))) :pattern (
    (has_bounds
      (set a i v)
      f
      l)) )))

;; "slide"
(declare-fun slide (map1
  Int
  Int) map1)

;; "slide_eq"
(assert
  (forall ((a map1) (first Int))
    (! (= (slide a first first) a) :pattern ((slide a first first)) )))

;; "slide_def"
(assert
  (forall ((a map1) (old_first Int) (new_first Int))
    (! (and
         (forall ((i Int))
           (! (= (get (slide a old_first new_first) i) (get
                                                         a
                                                         (- i (- new_first old_first)))) :pattern (
           (get
             (slide a old_first new_first)
             i)) ))
         (forall ((new_last Int))
           (! (=>
                (has_bounds a old_first (- new_last (- new_first old_first)))
                (has_bounds (slide a old_first new_first) new_first new_last)) :pattern (
           (has_bounds
             (slide a old_first new_first)
             new_first
             new_last)) ))) :pattern ((slide a old_first new_first)) )))

;; "slice"
(declare-fun slice (map1
  Int
  Int) map1)

;; "slice_eq"
(assert
  (forall ((a map1) (f Int) (l Int))
    (! (=> (has_bounds a f l) (= (slice a f l) a)) :pattern ((slice a f l)
    (has_bounds a f l)) )))

;; "slice_slice"
(assert
  (forall ((a map1) (f1 Int) (l1 Int) (f2 Int) (l2 Int))
    (! (=>
         (and (<= f1 f2) (<= l2 l1))
         (= (slice (slice a f1 l1) f2 l2) (slice a f2 l2))) :pattern (
    (slice
      (slice a f1 l1)
      f2
      l2)) )))

;; "slice_def"
(assert
  (forall ((a map1) (f Int) (l Int))
    (! (forall ((i Int))
         (! (=> (and (<= f i) (<= i l)) (= (get (slice a f l) i) (get a i))) :pattern (
         (get
           (slice a f l)
           i)) :pattern ((get a i)) )) :pattern ((slice a f l)) )))

;; "slice_has_bounds"
(assert
  (forall ((a map1) (f Int) (l Int))
    (! (has_bounds (slice a f l) f l) :pattern ((has_bounds
                                                  (slice a f l)
                                                  f
                                                  l)) )))

(declare-datatypes ()
  ((t (tqtmk (rec__first tinteger_32B)(rec__last tinteger_32B)))))

;; "mk"
(declare-fun mk (Int
  Int) t)

;; "mk_def"
(assert
  (forall ((f Int) (l Int))
    (! (=>
         (in_range f)
         (=>
           (in_range l)
           (and
             (= (to_rep (rec__first (mk f l))) f)
             (= (to_rep (rec__last (mk f l))) l)))) :pattern ((mk f l)) )))

;; "dynamic_property"
(define-fun dynamic_property ((range_first Int) (range_last Int) (low Int) (high Int)) Bool
  (and
    (in_range low)
    (and
      (in_range high)
      (=> (<= low high) (and (in_range1 low) (in_range1 high))))))

(declare-datatypes ()
  ((us_t (us_tqtmk (elts map1)(rt t)))))

;; "to_array"
(define-fun to_array ((a us_t)) map1
  (elts a))

;; "of_array"
(define-fun of_array ((a map1) (f Int) (l Int)) us_t
  (us_tqtmk a (mk f l)))

;; "first"
(define-fun first ((a us_t)) Int
  (to_rep (rec__first (rt a))))

;; "last"
(define-fun last ((a us_t)) Int
  (to_rep (rec__last (rt a))))

;; "length"
(define-fun length1 ((a us_t)) Int
  (ite (<= (first a) (last a)) (+ (- (last a) (first a)) 1) 0))

;; "well_formed"
(define-fun well_formed ((a us_t)) Bool
  (has_bounds
    (elts a)
    (to_rep (rec__first (rt a)))
    (to_rep (rec__last (rt a)))))

(declare-sort map2 0)

;; "has_bounds"
(declare-fun has_bounds1 (map2
  Int
  Int) Bool)

(declare-const m us_t)

(declare-const k us_t)

;; "hash"
(declare-fun hash (us_t) map1)

;; "hash__function_guard"
(declare-fun hash__function_guard (map1
  us_t) Bool)

;; "dynamic_invariant"
(define-fun dynamic_invariant ((temp___expr_252 us_t) (temp___is_init_248 Bool) (temp___skip_constant_249 Bool) (temp___do_toplevel_250 Bool) (temp___do_typ_inv_251 Bool)) Bool
  (and
    (=>
      (not (= temp___skip_constant_249 true))
      (dynamic_property
        0
        2147483647
        (first temp___expr_252)
        (last temp___expr_252)))
    (well_formed temp___expr_252)))

;; "ada___sparknacl__mac__hmac_sha_256__ipad__aggregate_def"
(declare-fun ada___sparknacl__mac__hmac_sha_256__ipad__aggregate_def ((_ BitVec 8)) map1)

;; "ada___sparknacl__mac__hmac_sha_256__opad__aggregate_def"
(declare-fun ada___sparknacl__mac__hmac_sha_256__opad__aggregate_def ((_ BitVec 8)) map1)

;; "ada___sparknacl__mac__hmac_sha_256__key__aggregate_def"
(declare-fun ada___sparknacl__mac__hmac_sha_256__key__aggregate_def ((_ BitVec 8)) map1)

(declare-const output map2)

;; "Assume"
(assert (has_bounds1 output 0 31))

;; "Assume"
(assert (dynamic_invariant m true false true true))

;; "Assume"
(assert (dynamic_invariant k true false true true))

;; "Assume"
(assert
  (and
    (and (= (first m) 0) (<= (last m) 2147483583))
    (=> (< 0 (length1 k)) (= (first k) 0))))

(declare-const temp___851 map1)

;; "H"
(assert (has_bounds temp___851 0 63))

;; "H"
(assert
  (forall ((temp___850 Int))
    (! (=>
         (and (<= 0 temp___850) (<= temp___850 63))
         (= (to_rep1 (get temp___851 temp___850)) #x36)) :pattern ((get
                                                                    temp___851
                                                                    temp___850)) )))

;; "H"
(assert
  (= temp___851 (ada___sparknacl__mac__hmac_sha_256__ipad__aggregate_def
                  #x36)))

;; "ada___sparknacl__mac__hmac_sha_256__ipad__aggregate_def'result'unused"
(define-fun ada___sparknacl__mac__hmac_sha_256__ipad__aggregate_defqtresultqtunused 
  () map1
  temp___851)

(declare-const ipad map1)

;; "ipad'unused"
(define-fun ipadqtunused () map__ref
  (map__refqtmk ipad))

;; "H"
(assert (= ipad temp___851))

;; "Assume"
(assert (has_bounds ipad 0 63))

(declare-const temp___858 map1)

;; "H"
(assert (has_bounds temp___858 0 63))

;; "H"
(assert
  (forall ((temp___857 Int))
    (! (=>
         (and (<= 0 temp___857) (<= temp___857 63))
         (= (to_rep1 (get temp___858 temp___857)) #x5C)) :pattern ((get
                                                                    temp___858
                                                                    temp___857)) )))

;; "H"
(assert
  (= temp___858 (ada___sparknacl__mac__hmac_sha_256__opad__aggregate_def
                  #x5C)))

;; "ada___sparknacl__mac__hmac_sha_256__opad__aggregate_def'result'unused"
(define-fun ada___sparknacl__mac__hmac_sha_256__opad__aggregate_defqtresultqtunused 
  () map1
  temp___858)

(declare-const opad map1)

;; "opad'unused"
(define-fun opadqtunused () map__ref
  (map__refqtmk opad))

;; "H"
(assert (= opad temp___858))

;; "Assume"
(assert (has_bounds opad 0 63))

(declare-const temp___865 map1)

;; "H"
(assert (has_bounds temp___865 0 63))

;; "H"
(assert
  (forall ((temp___864 Int))
    (! (=>
         (and (<= 0 temp___864) (<= temp___864 63))
         (= (to_rep1 (get temp___865 temp___864)) #x00)) :pattern ((get
                                                                    temp___865
                                                                    temp___864)) )))

;; "H"
(assert
  (= temp___865 (ada___sparknacl__mac__hmac_sha_256__key__aggregate_def #x00)))

;; "ada___sparknacl__mac__hmac_sha_256__key__aggregate_def'result'unused"
(define-fun ada___sparknacl__mac__hmac_sha_256__key__aggregate_defqtresultqtunused 
  () map1
  temp___865)

(declare-const key map1)

;; "key'unused"
(define-fun keyqtunused () map__ref
  (map__refqtmk key))

;; "H"
(assert (= key temp___865))

;; "Assume"
(assert (has_bounds key 0 63))

(declare-const key1 map1)

;; "key'unused"
(define-fun keyqtunused1 () map__ref
  (map__refqtmk key1))

(declare-const o Int)

;; "H"
(assert (= o (length1 k)))

(declare-const lengthqtresultqtunused Int)

;; "H"
(assert (= lengthqtresultqtunused o))

(declare-const o1 Bool)

;; "H"
(assert (= o1 (ite (< 64 o) true false)))

(declare-const infix_gtqtresultqtunused Bool)

;; "H"
(assert (= infix_gtqtresultqtunused o1))

(declare-const spark__branch Bool)

(declare-const spark__branchqtunused bool__ref)

;; "H"
(assert (= spark__branchqtunused (bool__refqtmk spark__branch)))

;; "H"
(assert (= spark__branch o1))

(declare-const bool__contentqtresultqtunused Bool)

;; "H"
(assert (= bool__contentqtresultqtunused spark__branch))

(declare-const o2 Int)

(declare-const firstqtresultqtunused Int)

(declare-const o3 Int)

(declare-const firstqtresultqtunused1 Int)

(declare-const o4 map1)

(declare-const to_arrayqtresultqtunused map1)

(declare-const temp___876 map1)

(declare-const slideqtresultqtunused map1)

(declare-const o5 Int)

(declare-const lastqtresultqtunused Int)

(declare-const o6 Int)

(declare-const firstqtresultqtunused2 Int)

(declare-const temp___877 us_t)

(declare-const of_arrayqtresultqtunused us_t)

(declare-const temp___879 Int)

(declare-const lastqtresultqtunused1 Int)

(declare-const temp___878 Int)

(declare-const firstqtresultqtunused3 Int)

(declare-const map__contentqtresultqtunused map1)

(declare-const o7 map1)

(declare-const sliceqtresultqtunused map1)

(declare-const temp___880 us_t)

(declare-const of_arrayqtresultqtunused1 us_t)

(declare-const usf map1)

(declare-const anyqtresultqtunused map1)

(declare-const temp___883 Int)

(declare-const firstqtresultqtunused4 Int)

(declare-const temp___884 Int)

(declare-const lastqtresultqtunused2 Int)

(declare-const infix_lseqqtresultqtunused Bool)

(declare-const o8 us_t)

(declare-const temp___869 map1)

(declare-const hashqtresultqtunused map1)

(declare-const usf1 map1)

(declare-const anyqtresultqtunused1 map1)

;; "H"
(assert
  (ite (= spark__branch true)
    (and
      (= o8 k)
      (and
        (= temp___869 (hash o8))
        (and
          (and
            (hash__function_guard temp___869 o8)
            (has_bounds temp___869 0 31))
          (and
            (= hashqtresultqtunused temp___869)
            (and
              (forall ((temp___872 Int))
                (ite (and (<= 0 temp___872) (<= temp___872 31))
                  (= (get usf1 temp___872) (get temp___869 temp___872))
                  (= (get usf1 temp___872) (get key temp___872))))
              (and (= anyqtresultqtunused1 usf1) (= key1 usf1)))))))
    (and
      (<= (length1 k) 64)
      (and
        (= o2 (first k))
        (and
          (= firstqtresultqtunused o2)
          (and
            (= o3 (first k))
            (and
              (= firstqtresultqtunused1 o3)
              (and
                (= o4 (to_array k))
                (and
                  (= to_arrayqtresultqtunused o4)
                  (and
                    (= temp___876 (slide o4 o3 o2))
                    (and
                      (= slideqtresultqtunused temp___876)
                      (and
                        (ite (<= (first k) (last k))
                          (<= (first k) (last k))
                          (< (last k) (first k)))
                        (and
                          (= o5 (last k))
                          (and
                            (= lastqtresultqtunused o5)
                            (and
                              (= o6 (first k))
                              (and
                                (= firstqtresultqtunused2 o6)
                                (and
                                  (= temp___877 (of_array temp___876 o6 o5))
                                  (and
                                    (= of_arrayqtresultqtunused temp___877)
                                    (and
                                      (= temp___879 (last k))
                                      (and
                                        (= lastqtresultqtunused1 temp___879)
                                        (and
                                          (= temp___878 (first k))
                                          (and
                                            (= firstqtresultqtunused3 
                                            temp___878)
                                            (and
                                              (=>
                                                (<= temp___878 temp___879)
                                                (and
                                                  (and
                                                    (<= 0 temp___878)
                                                    (<= temp___878 63))
                                                  (and
                                                    (<= 0 temp___879)
                                                    (<= temp___879 63))))
                                              (and
                                                (= map__contentqtresultqtunused 
                                                key)
                                                (and
                                                  (= o7 (slice
                                                          key
                                                          temp___878
                                                          temp___879))
                                                  (and
                                                    (= sliceqtresultqtunused 
                                                    o7)
                                                    (and
                                                      (= temp___880 (of_array
                                                                    o7
                                                                    temp___878
                                                                    temp___879))
                                                      (and
                                                        (= of_arrayqtresultqtunused1 
                                                        temp___880)
                                                        (and
                                                          (ite (<= o6 
                                                            o5)
                                                            (and
                                                              (<= temp___878 
                                                              temp___879)
                                                              (= (- o5 
                                                              o6) (- 
                                                              temp___879 
                                                              temp___878)))
                                                            (< temp___879 
                                                            temp___878))
                                                          (and
                                                            (and
                                                              (= temp___883 
                                                              (first
                                                                k))
                                                              (and
                                                                (= firstqtresultqtunused4 
                                                                temp___883)
                                                                (and
                                                                  (= 
                                                                  temp___884 
                                                                  (last
                                                                    k))
                                                                  (and
                                                                    (= 
                                                                    lastqtresultqtunused2 
                                                                    temp___884)
                                                                    (= 
                                                                    infix_lseqqtresultqtunused 
                                                                    (ite (<= 
                                                                    temp___883 
                                                                    temp___884)
                                                                    true
                                                                    false))))))
                                                            (and
                                                              (forall 
                                                                ((temp___882 Int))
                                                                (ite 
                                                                  (and
                                                                    (<= 
                                                                    (first
                                                                    k) temp___882)
                                                                    (<= temp___882 
                                                                    (last
                                                                    k)))
                                                                  (= 
                                                                  (get
                                                                    usf
                                                                    temp___882) 
                                                                  (get
                                                                    temp___876
                                                                    temp___882))
                                                                  (= 
                                                                  (get
                                                                    usf
                                                                    temp___882) 
                                                                  (get
                                                                    key
                                                                    temp___882))))
                                                              (and
                                                                (= anyqtresultqtunused 
                                                                usf)
                                                                (= key1 
                                                                usf)))))))))))))))))))))))))))))))))

(declare-const ipad1 map1)

(declare-const opad1 map1)

;; "opad'unused"
(define-fun opadqtunused1 () map__ref
  (map__refqtmk opad1))

;; "ipad'unused"
(define-fun ipadqtunused1 () map__ref
  (map__refqtmk ipad1))

(declare-const i Int)

(declare-const iqtunused int__ref)

;; "H"
(assert (= iqtunused (int__refqtmk i)))

;; "H"
(assert (= i 0))

(declare-const int__contentqtresultqtunused Int)

;; "H"
(assert (= int__contentqtresultqtunused i))

(declare-const o9 Bool)

;; "H"
(assert (= o9 (ite (<= i 63) true false)))

(declare-const infix_lseqqtresultqtunused1 Bool)

;; "H"
(assert (= infix_lseqqtresultqtunused1 o9))

(declare-const int__contentqtresultqtunused1 Int)

;; "H"
(assert (= int__contentqtresultqtunused1 i))

(declare-const o10 Bool)

;; "H"
(assert (= o10 (ite (<= 0 i) true false)))

(declare-const infix_lseqqtresultqtunused2 Bool)

;; "H"
(assert (= infix_lseqqtresultqtunused2 o10))

(declare-const o11 Bool)

;; "H"
(assert (= o11 (and o10 o9)))

(declare-const andbqtresultqtunused Bool)

;; "H"
(assert (= andbqtresultqtunused o11))

(declare-const temp___loop_entry_895qtunused map1)

(declare-const map__contentqtresultqtunused1 map1)

(declare-const temp___loop_entry_892qtunused map1)

(declare-const map__contentqtresultqtunused2 map1)

(declare-const ipad2 map1)

(declare-const opad2 map1)

(declare-const i1 Int)

(declare-const iqtunused1 int__ref)

(declare-const opadqtunused2 map__ref)

(declare-const ipadqtunused2 map__ref)

(declare-const int__contentqtresultqtunused2 Int)

(declare-const map__contentqtresultqtunused3 map1)

(declare-const o12 byte)

(declare-const getqtresultqtunused byte)

(declare-const o13 (_ BitVec 8))

(declare-const to_repqtresultqtunused (_ BitVec 8))

(declare-const int__contentqtresultqtunused3 Int)

(declare-const map__contentqtresultqtunused4 map1)

(declare-const o14 byte)

(declare-const getqtresultqtunused1 byte)

(declare-const o15 (_ BitVec 8))

(declare-const to_repqtresultqtunused1 (_ BitVec 8))

(declare-const o16 (_ BitVec 8))

(declare-const bw_xorqtresultqtunused (_ BitVec 8))

(declare-const o17 byte)

(declare-const of_repqtresultqtunused byte)

(declare-const int__contentqtresultqtunused4 Int)

(declare-const map__contentqtresultqtunused5 map1)

(declare-const o18 map1)

(declare-const setqtresultqtunused map1)

(declare-const int__contentqtresultqtunused5 Int)

(declare-const map__contentqtresultqtunused6 map1)

(declare-const o19 byte)

(declare-const getqtresultqtunused2 byte)

(declare-const o20 (_ BitVec 8))

(declare-const to_repqtresultqtunused2 (_ BitVec 8))

(declare-const int__contentqtresultqtunused6 Int)

(declare-const map__contentqtresultqtunused7 map1)

(declare-const o21 byte)

(declare-const getqtresultqtunused3 byte)

(declare-const o22 (_ BitVec 8))

(declare-const to_repqtresultqtunused3 (_ BitVec 8))

(declare-const o23 (_ BitVec 8))

(declare-const bw_xorqtresultqtunused1 (_ BitVec 8))

(declare-const o24 byte)

(declare-const of_repqtresultqtunused1 byte)

(declare-const int__contentqtresultqtunused7 Int)

(declare-const map__contentqtresultqtunused8 map1)

(declare-const o25 map1)

(declare-const setqtresultqtunused1 map1)

(declare-const int__contentqtresultqtunused8 Int)

(declare-const infix_eqqtresultqtunused Bool)

;; "H"
(assert
  (ite (= o11 true)
    (and
      (= temp___loop_entry_895qtunused opad)
      (and
        (= map__contentqtresultqtunused1 opad)
        (and
          (= temp___loop_entry_892qtunused ipad)
          (and
            (= map__contentqtresultqtunused2 ipad)
            (and
              (= iqtunused1 (int__refqtmk i1))
              (and
                (= opadqtunused2 (map__refqtmk opad2))
                (and
                  (= ipadqtunused2 (map__refqtmk ipad2))
                  (and
                    (= (and (ite (and
                                   (and
                                     (and
                                       (has_bounds ipad2 0 63)
                                       (forall ((temp___893 Int))
                                         (=>
                                           (and
                                             (<= 0 temp___893)
                                             (<= temp___893 63))
                                           (=>
                                             (or
                                               (< 63 temp___893)
                                               (or
                                                 (< temp___893 0)
                                                 (<= i1 temp___893)))
                                             (= (get ipad2 temp___893) 
                                             (get
                                               ipad
                                               temp___893))))))
                                     (has_bounds opad2 0 63))
                                   (forall ((temp___896 Int))
                                     (=>
                                       (and
                                         (<= 0 temp___896)
                                         (<= temp___896 63))
                                       (=>
                                         (or
                                           (< 63 temp___896)
                                           (or
                                             (< temp___896 0)
                                             (<= i1 temp___896)))
                                         (= (get opad2 temp___896) (get
                                                                    opad
                                                                    temp___896))))))
                              true
                              false) (ite (and (<= 0 i1) (<= i1 63))
                                       true
                                       false)) true)
                    (and
                      (= int__contentqtresultqtunused2 i1)
                      (and
                        (= map__contentqtresultqtunused3 key1)
                        (and
                          (= o12 (get key1 i1))
                          (and
                            (= getqtresultqtunused o12)
                            (and
                              (= (to_rep1 o12) o13)
                              (and
                                (= to_repqtresultqtunused o13)
                                (and
                                  (= int__contentqtresultqtunused3 i1)
                                  (and
                                    (= map__contentqtresultqtunused4 
                                    ipad2)
                                    (and
                                      (= o14 (get ipad2 i1))
                                      (and
                                        (= getqtresultqtunused1 o14)
                                        (and
                                          (= (to_rep1 o14) o15)
                                          (and
                                            (= to_repqtresultqtunused1 
                                            o15)
                                            (and
                                              (= o16 (bvxor o15 o13))
                                              (and
                                                (= bw_xorqtresultqtunused 
                                                o16)
                                                (and
                                                  (= (to_rep1 o17) o16)
                                                  (and
                                                    (= of_repqtresultqtunused 
                                                    o17)
                                                    (and
                                                      (= int__contentqtresultqtunused4 
                                                      i1)
                                                      (and
                                                        (= map__contentqtresultqtunused5 
                                                        ipad2)
                                                        (and
                                                          (= o18 (set
                                                                   ipad2
                                                                   i1
                                                                   o17))
                                                          (and
                                                            (= setqtresultqtunused 
                                                            o18)
                                                            (and
                                                              (= ipad1 
                                                              o18)
                                                              (and
                                                                (= int__contentqtresultqtunused5 
                                                                i1)
                                                                (and
                                                                  (= 
                                                                  map__contentqtresultqtunused6 
                                                                  key1)
                                                                  (and
                                                                    (= 
                                                                    o19 
                                                                    (get
                                                                    key1
                                                                    i1))
                                                                    (and
                                                                    (= 
                                                                    getqtresultqtunused2 
                                                                    o19)
                                                                    (and
                                                                    (= 
                                                                    (to_rep1
                                                                    o19) 
                                                                    o20)
                                                                    (and
                                                                    (= 
                                                                    to_repqtresultqtunused2 
                                                                    o20)
                                                                    (and
                                                                    (= 
                                                                    int__contentqtresultqtunused6 
                                                                    i1)
                                                                    (and
                                                                    (= 
                                                                    map__contentqtresultqtunused7 
                                                                    opad2)
                                                                    (and
                                                                    (= 
                                                                    o21 
                                                                    (get
                                                                    opad2
                                                                    i1))
                                                                    (and
                                                                    (= 
                                                                    getqtresultqtunused3 
                                                                    o21)
                                                                    (and
                                                                    (= 
                                                                    (to_rep1
                                                                    o21) 
                                                                    o22)
                                                                    (and
                                                                    (= 
                                                                    to_repqtresultqtunused3 
                                                                    o22)
                                                                    (and
                                                                    (= 
                                                                    o23 (bvxor 
                                                                    o22 
                                                                    o20))
                                                                    (and
                                                                    (= 
                                                                    bw_xorqtresultqtunused1 
                                                                    o23)
                                                                    (and
                                                                    (= 
                                                                    (to_rep1
                                                                    o24) 
                                                                    o23)
                                                                    (and
                                                                    (= 
                                                                    of_repqtresultqtunused1 
                                                                    o24)
                                                                    (and
                                                                    (= 
                                                                    int__contentqtresultqtunused7 
                                                                    i1)
                                                                    (and
                                                                    (= 
                                                                    map__contentqtresultqtunused8 
                                                                    opad2)
                                                                    (and
                                                                    (= 
                                                                    o25 
                                                                    (set
                                                                    opad2
                                                                    i1
                                                                    o24))
                                                                    (and
                                                                    (= 
                                                                    setqtresultqtunused1 
                                                                    o25)
                                                                    (and
                                                                    (= 
                                                                    opad1 
                                                                    o25)
                                                                    (and
                                                                    (= 
                                                                    int__contentqtresultqtunused8 
                                                                    i1)
                                                                    (and
                                                                    (= 
                                                                    infix_eqqtresultqtunused 
                                                                    (ite (= 
                                                                    i1 63)
                                                                    true
                                                                    false))
                                                                    (= 
                                                                    i1 63)))))))))))))))))))))))))))))))))))))))))))))))))))))
    (and (= ipad1 ipad) (= opad1 opad))))

;; "o"
(define-fun o26 () Int
  (last m))

;; "last'result'unused"
(define-fun lastqtresultqtunused3 () Int
  o26)

;; "o"
(define-fun o27 () Int
  (first m))

;; "first'result'unused"
(define-fun firstqtresultqtunused5 () Int
  o27)

;; "o"
(define-fun o28 () Int
  (length o27 o26))

;; "length'result'unused"
(define-fun lengthqtresultqtunused1 () Int
  o28)

;; "o"
(define-fun o29 () Int
  (length 0 63))

;; "length'result'unused"
(define-fun lengthqtresultqtunused2 () Int
  o29)

;; "o"
(define-fun o30 () Int
  (+ o29 o28))

;; "infix +'result'unused"
(define-fun infix_plqtresultqtunused () Int
  o30)

;; "o"
(define-fun o31 () Int
  (+ 0 o30))

;; "infix +'result'unused"
(define-fun infix_plqtresultqtunused1 () Int
  o31)

;; "o"
(define-fun o32 () Int
  (- o31 1))

;; "infix -'result'unused"
(define-fun infix_mnqtresultqtunused () Int
  o32)

;; Goal "def'vc"
;; File "sparknacl-mac.ads", line 43, characters 0-0
(assert
  (not (<= o32 2147483647)))

(check-sat)
